language ESSENCE' 1.0
$ loaded file: carseqdata/csplib-instance-73
letting numcars=200
letting numclasses=30
letting numoptions=5
letting optMax=[1, 2, 1, 2, 1]
letting windowSize=[2, 3, 3, 5, 5]
letting numberPerClass=[9, 5, 9, 2, 31, 8, 2, 19, 1, 5, 28, 5, 1, 7, 3, 6, 1, 8, 2, 7, 2, 12, 4, 1, 1, 6, 1, 1, 1, 12]
letting optionsRequired=[[0, 1, 1, 0, 0], [1, 0, 0, 0, 1], [1, 0, 0, 1, 0], [1, 1, 0, 1, 1], [0, 1, 0, 0, 0], [0, 0, 1, 0, 0], [0, 1, 0, 1, 1], [0, 1, 0, 1, 0], [1, 1, 1, 1, 0], [0, 0, 1, 1, 0], [1, 1, 0, 0, 0], [1, 1, 0, 0, 1], [0, 0, 1, 1, 1], [1, 0, 1, 0, 0], [1, 0, 1, 1, 0], [0, 0, 0, 0, 1], [1, 1, 1, 0, 1], [1, 1, 1, 0, 0], [0, 0, 0, 1, 1], [0, 1, 1, 1, 0], [0, 0, 1, 0, 1], [1, 0, 0, 0, 0], [0, 1, 0, 0, 1], [1, 0, 1, 0, 0], [0, 1, 1, 0, 0], [1, 0, 0, 1, 0], [1, 0, 0, 0, 0], [0, 0, 0, 0, 0], [0, 0, 0, 0, 0], [0, 0, 0, 0, 0]]
